30
22
3
23
10
13
9
19
10
10
11
21
15
21
9
28
11
17
16
22
8
6
7
5
13
4
20
7
21
5
20
29
10
23
18
22
4
15
1
28
15
9
14
7
25
7
14
8
22
12
24
19
11
30
6
27
13
19
15
16
4
2
17
17
29
1
1
3
18
2
26
26
3
24
8
27
13
19
1
21
6
5
16
5
20
2
4
6
8
3
18
25
12
24
14
24
12
28
14
23
12
